17	4
32	20	31	23	
0	0	0	0	0	3	2	3	4	
6	0	0	2	0	3	8	11	17	
1	2	7	0	7	3	6	7	14	
5	0	7	0	0	3	5	9	17	
6	9	0	3	10	3	10	15	17	
250	6	0	0	0	3	11	12	13	
250	8	0	0	5	2	8	17	
100	0	1	0	4	3	10	16	17	
225	9	2	0	0	3	10	14	17	
50	0	0	0	9	3	13	17	17	
100	10	5	0	2	3	17	17	17	
150	1	10	0	0	3	17	17	17	
7	3	0	5	9	1	17	
9	10	4	0	0	3	17	17	17	
9	10	0	8	3	3	16	17	17	
6	0	7	1	7	2	17	17	
0	0	0	0	0	0	
